instances/tuning-use-case-1/oven_scheduling.minizinc_instance_0112-17.51.25.dat
LengthSchedulingHorizon=330;
nAttributes=5;
SetupCosts=[[0, 0, 0, 0, 0], [0, 3, 2, 0, 1], [3, 2, 2, 2, 2], [2, 2, 1, 0, 0], [0, 2, 0, 2, 0], [1, 2, 0, 0, 0]];
SetupTimes=[[0, 0, 0, 0, 0], [0, 3, 3, 0, 0], [3, 2, 2, 2, 2], [3, 2, 2, 0, 0], [0, 2, 0, 2, 1], [0, 2, 0, 1, 2]];
nMachines=5;
MinCap=[0, 0, 0, 0, 0];
MaxCap=[20, 20, 20, 20, 20];

initState=[1, 1, 4, 4, 1];
nShifts=4;
ShiftStartTimes = [[4, 81, 295, 301], [0, 51, 188, 266], [0, 0, 7, 200], [0, 71, 126, 260], [0, 0, 187, 236]];
ShiftEndTimes = [[64, 150, 301, 329], [0, 108, 223, 323], [0, 0, 120, 240], [0, 98, 260, 291], [0, 0, 205, 262]];
nJobs=10;
EligibleMachines = [{1, 3, 5}, {1, 2, 4, 5}, {2, 3, 5}, {1, 2, 3, 5}, {2, 5}, {2, 4, 5}, {1, 2, 3, 5}, {2, 4}, {2, 3, 4}, {1, 3, 4, 5}];
EarliestStart=[7, 0, 18, 18, 10, 15, 8, 18, 8, 8];
LatestEnd=[47, 3, 42, 44, 13, 22, 21, 38, 13, 13];
MinTime=[10, 1, 8, 8, 2, 2, 4, 6, 5, 2];
MaxTime=[10, 10, 10, 10, 10, 10, 10, 10, 10, 10];
JobSize=[17, 14, 7, 3, 14, 20, 9, 12, 20, 10];
Attribute=[5, 2, 5, 5, 3, 2, 2, 1, 1, 5];

upper_bound_integer_objective=15750;
mult_factor_total_runtime=12;
mult_factor_finished_toolate=1500;
mult_factor_total_setuptimes=0;
mult_factor_total_setupcosts=5;
running_time_bound=48;
min_duration=1;
max_duration=10;
max_setup_time=3;
max_setup_cost=3;
